c This is an instance of the exact track of PACE 2020 Challenge, see https://pacechallenge.org/2020/ 
c TYPE: infrastracture 
c ORIGIN: Open street maps 
c DESCRIPTION: Gortatowo (Poland): a road network downloaded from open street maps using osmnx Python package 
p tdp 21 25
1 5
1 3
2 19
2 6
2 9
2 14
3 4
3 7
4 6
4 7
6 7
6 21
8 16
8 10
9 10
11 12
11 20
11 17
13 20
13 16
13 14
14 15
16 17
17 18
19 20
